interdiction/MCDM/NO_CORR/GEN_FROM_60/12_ITEMS_1000_GEN/K5012W10.KNP.mps
NAME          BLANK   
ROWS
 N  OBJROW
 L  R0000000
COLUMNS
    C0000000  OBJROW     -914.         R0000000  250.        
    C0000001  OBJROW     -997.         R0000000  15.         
    C0000002  OBJROW     -86.          R0000000  768.        
    C0000003  OBJROW     -13.          R0000000  778.        
    C0000004  OBJROW     -515.         R0000000  170.        
    C0000005  OBJROW     -595.         R0000000  722.        
    C0000006  OBJROW     -133.         R0000000  584.        
    C0000007  OBJROW     -619.         R0000000  473.        
    C0000008  OBJROW     -280.         R0000000  728.        
    C0000009  OBJROW     -672.         R0000000  530.        
    C0000010  OBJROW     -585.         R0000000  728.        
    C0000011  OBJROW     -798.         R0000000  569.        
RHS
    RHS       R0000000  15551.      
BOUNDS
 BV BOUND     C0000000  1.          
 BV BOUND     C0000001  1.          
 BV BOUND     C0000002  1.          
 BV BOUND     C0000003  1.          
 BV BOUND     C0000004  1.          
 BV BOUND     C0000005  1.          
 BV BOUND     C0000006  1.          
 BV BOUND     C0000007  1.          
 BV BOUND     C0000008  1.          
 BV BOUND     C0000009  1.          
 BV BOUND     C0000010  1.          
 BV BOUND     C0000011  1.          
ENDATA
