interdiction/MCDM/NO_CORR/GEN_FROM_60/12_ITEMS_1000_GEN/K5012W10.KNP.txt
N 12
M 13
LC 12
LC 13
LC 14
LC 15
LC 16
LC 17
LC 18
LC 19
LC 20
LC 21
LC 22
LC 23
LR 1
LR 2
LR 3
LR 4
LR 5
LR 6
LR 7
LR 8
LR 9
LR 10
LR 11
LR 12
LR 13
LO -914
LO -997
LO -86
LO -13
LO -515
LO -595
LO -133
LO -619
LO -280
LO -672
LO -585
LO -798
OS 1
IC 372
IC 707
IC 123
IC 699
IC 70
IC 197
IC 991
IC 293
IC 365
IC 702
IC 469
IC 917
IB 2953
